
Gurobi 11.0.3 (linux64) logging started Mon 18 Nov 2024 08:36:36 PM CST

Set parameter LogFile to value "/home/dlcole3/graph_abstraction/hierarchical_graphs/git_storage/CS1/HP_low_reserves/gurobi_logs/serial/logfile_ST9_2.log"

Gurobi 11.0.3 (linux64) logging started Mon 18 Nov 2024 08:38:07 PM CST

Set parameter LogFile to value "/home/dlcole3/graph_abstraction/hierarchical_graphs/git_storage/CS1/HP_low_reserves/gurobi_logs/serial/logfile_ST9_2.log"
Gurobi Optimizer version 11.0.3 build v11.0.3rc0 (linux64 - "Ubuntu 18.04.3 LTS")

CPU model: Intel(R) Xeon(R) CPU E5-2698 v4 @ 2.20GHz, instruction set [SSE2|AVX|AVX2]
Thread count: 40 physical cores, 80 logical processors, using up to 20 threads

Optimize a model with 29168 rows, 50688 columns and 136175 nonzeros
Model fingerprint: 0x52ab18ee
Variable types: 46944 continuous, 3744 integer (3744 binary)
Coefficient statistics:
  Matrix range     [6e-01, 2e+04]
  Objective range  [2e+00, 2e+04]
  Bounds range     [5e-02, 2e+05]
  RHS range        [5e-02, 7e+03]
Presolve removed 14746 rows and 39089 columns
Presolve time: 0.35s
Presolved: 14422 rows, 11599 columns, 61509 nonzeros
Variable types: 8632 continuous, 2967 integer (2967 binary)
Found heuristic solution: objective 168517.92662
Found heuristic solution: objective 159585.18529
Found heuristic solution: objective 148947.22690

Root relaxation: objective 1.924066e+04, 8777 iterations, 0.48 seconds (0.37 work units)

    Nodes    |    Current Node    |     Objective Bounds      |     Work
 Expl Unexpl |  Obj  Depth IntInf | Incumbent    BestBd   Gap | It/Node Time

     0     0 19240.6628    0   16 148947.227 19240.6628  87.1%     -    1s
H    0     0                    148787.17025 19240.6628  87.1%     -    1s
H    0     0                    19836.489893 19240.6628  3.00%     -    1s
     0     0 19240.8644    0   16 19836.4899 19240.8644  3.00%     -    1s
     0     0 19240.8644    0    7 19836.4899 19240.8644  3.00%     -    2s
     0     0 19259.4121    0   19 19836.4899 19259.4121  2.91%     -    2s
H    0     0                    19651.655883 19343.2178  1.57%     -    2s
     0     0 19344.1999    0   32 19651.6559 19344.1999  1.56%     -    2s
H    0     0                    19586.840546 19348.6673  1.22%     -    2s
     0     0 19348.6673    0   45 19586.8405 19348.6673  1.22%     -    2s
     0     0 19348.6846    0   45 19586.8405 19348.6846  1.22%     -    3s
H    0     0                    19586.828640 19349.7239  1.21%     -    3s
     0     0 19351.7583    0   33 19586.8286 19351.7583  1.20%     -    3s
     0     0 19351.8024    0   45 19586.8286 19351.8024  1.20%     -    3s
H    0     0                    19528.496002 19351.8024  0.90%     -    3s
H    0     0                    19379.843994 19351.8024  0.14%     -    3s
     0     0 19351.8024    0   45 19379.8440 19351.8024  0.14%     -    3s

Cutting planes:
  Gomory: 1
  Implied bound: 1
  MIR: 3

Explored 1 nodes (15251 simplex iterations) in 3.27 seconds (1.94 work units)
Thread count was 20 (of 80 available processors)

Solution count 10: 19379.8 19528.5 19586.8 ... 168518

Optimal solution found (tolerance 3.00e-03)
Best objective 1.937984399415e+04, best bound 1.935180237294e+04, gap 0.1447%

User-callback calls 1665, time in user-callback 0.00 sec
